s td 13 38 50
b 1 1 2 3 4 5 6 7 10 11 12 13 15 16 17 18 19 22 23 24 25 27 28 29 30 31 33 34 35 36 38 39 41 42 43 45 48 49 50
b 2 3 4 6 7 8 10 11 12 13 16 17 18 19 23 24 28 29 30 31 33 38 41 42 43 45 49
b 3 1 2 3 4 5 6 7 10 11 12 13 15 16 17 18 19 22 23 24 25 27 28 29 30 31 33 34 35 36 38 39 42 43 44 45 48 49 50
b 4 1 2 3 4 5 6 7 10 12 13 15 16 17 18 19 22 23 24 25 26 27 28 29 30 33 34 35 36 38 39 42 43 44 45 48 49 50
b 5 1 2 3 4 5 6 7 9 10 12 13 15 16 17 18 19 22 23 24 25 26 27 28 29 30 33 34 35 36 38 39 42 44 45 48 49
b 6 1 2 3 4 5 6 7 9 10 12 13 15 16 17 18 19 20 22 23 25 26 27 28 29 30 33 35 36 38 39 42 44 45 48 49
b 7 1 2 3 4 5 6 7 10 12 13 14 15 16 17 18 19 20 22 23 25 26 27 28 29 30 33 35 36 42 44 45
b 8 2 3 4 5 6 7 12 14 15 16 17 18 19 20 26 27 28 29 30 33 35 36 42 46
b 9 1 2 3 4 5 6 7 10 11 12 13 15 17 18 19 22 23 24 25 27 28 29 30 31 33 34 35 36 38 39 40 41 42 43 45 48 49 50
b 10 1 2 3 5 6 7 10 11 12 13 15 17 18 22 23 24 25 27 28 29 30 31 33 34 35 36 37 38 39 40 41 42 43 45 48 49 50
b 11 1 2 3 5 6 7 11 12 13 15 17 18 22 23 24 25 27 28 29 30 31 33 34 35 36 37 38 39 40 41 43 45 47 48 49 50
b 12 1 2 5 6 7 11 12 13 17 18 22 23 24 25 27 28 29 30 31 32 33 35 36 37 38 39 40 41 43 45 47 48 49 50
b 13 1 2 5 6 7 11 12 13 17 18 21 22 24 25 27 28 29 30 32 33 35 37 38 43 45 48
1 2
1 3
1 9
3 4
4 5
5 6
6 7
7 8
9 10
10 11
11 12
12 13
